(declare-const delta_x Int)
(declare-const delta___cost Int)
(declare-const delta_z Int)
(assert (exists
         ((|x'?1?1| Int) (|S1,1?2_integralized?2| Int) (|z'?3?3| Int)
            (|S1,0?4_integralized?4| Int) (|__cost'?5?5| Int) (KSUM1?6?6 Int)
            (|K1,0?7?7| Int) (K?8?8 Int) (|z'?9?9| Int) (|__cost'?10?10| Int)
            (z?11?11 Int) (x?12?12 Int) (y?13?13 Int) (__cost?14?14 Int))
         (and (<= (- y?13?13) 0) (< (+ (- x?12?12) y?13?13) 0)
                (<= (- __cost?14?14) 0) (<= (+ (- __cost?14?14) -1) 0)
                (<= (- K?8?8) 0) (<= (- |K1,0?7?7|) 0)
                (= (+ |K1,0?7?7| (- K?8?8)) 0) (<= (+ KSUM1?6?6 (- K?8?8)) 0)
                (= (+ (- |S1,0?4_integralized?4|) |__cost'?5?5|
                        (- |K1,0?7?7|)) 0)
                (= (+ (- |S1,1?2_integralized?2|) |z'?3?3| |K1,0?7?7|) 0)
                (= (+ (- KSUM1?6?6) |K1,0?7?7|) 0)
                (= (+ |S1,0?4_integralized?4| (- __cost?14?14) -1) 0)
                (= (+ |S1,1?2_integralized?2| (- y?13?13)) 0)
                (or (and (= K?8?8 0) (= (+ (- |z'?3?3|) y?13?13) 0)
                           (= (+ (- |__cost'?5?5|) __cost?14?14 1) 0))
                      (and (<= (+ (- K?8?8) 1) 0) (<= (- __cost?14?14) 0)
                             (<= (+ (- y?13?13) 1) 0)
                             (<= (+ (- |__cost'?5?5|) 2) 0)
                             (<= (- |z'?3?3|) 0)))
                (= (+ |__cost'?5?5| (- K?8?8) (- __cost?14?14) -1) 0)
                (= (+ |z'?3?3| K?8?8 (- y?13?13)) 0) (<= (- K?8?8) 0)
                (<= (- |z'?3?3|) 0) (< (- |__cost'?5?5|) 0) (<= |z'?3?3| 0)
                (= (+ |x'?1?1| (- x?12?12) y?13?13 1) 0)
                (= (+ |z'?9?9| (- |z'?3?3|)) 0)
                (= (+ |__cost'?10?10| (- |__cost'?5?5|)) 0)
                (= (+ delta___cost (- (+ |__cost'?10?10| (- __cost?14?14)))) 0)
                (= (+ delta_z (- (+ |z'?9?9| (- z?11?11)))) 0)
                (= (+ delta_x (- (+ |x'?1?1| (- x?12?12)))) 0))))